NAME : X-n242-k48
COMMENT : "Generated by Uchoa, Pecin, Pessoa, Poggi, Subramanian, and Vidal (2013)"
TYPE : CVRP
DIMENSION : 242
EDGE_WEIGHT_TYPE : EUC_2D
EDGE_WEIGHT_FORMAT : 
CAPACITY : 28
DISTANCE : 1.79769e+308
SERVICE_TIME : 0
NODE_COORD_SECTION
1 0 0
2 346 793
3 692 966
4 171 666
5 287 795
6 93 919
7 712 216
8 991 988
9 475 266
10 71 307
11 83 987
12 518 392
13 807 134
14 377 164
15 692 127
16 701 530
17 831 255
18 938 210
19 873 127
20 569 817
21 796 379
22 6 182
23 917 620
24 728 936
25 157 644
26 668 333
27 564 876
28 861 333
29 70 79
30 330 931
31 513 308
32 230 725
33 896 107
34 234 758
35 911 970
36 177 587
37 697 37
38 947 615
39 861 54
40 620 667
41 739 572
42 861 818
43 917 398
44 555 473
45 992 303
46 701 695
47 588 974
48 556 781
49 627 213
50 19 93
51 837 398
52 277 133
53 521 177
54 694 875
55 575 428
56 949 337
57 752 458
58 432 417
59 173 459
60 881 966
61 101 210
62 270 113
63 951 30
64 959 856
65 554 981
66 72 873
67 681 319
68 149 612
69 799 203
70 30 618
71 92 644
72 997 104
73 727 707
74 163 790
75 364 966
76 119 969
77 931 207
78 820 844
79 630 384
80 721 103
81 209 814
82 176 751
83 476 638
84 76 178
85 62 523
86 737 499
87 442 611
88 42 123
89 194 726
90 835 589
91 521 825
92 554 637
93 11 702
94 129 540
95 659 941
96 122 683
97 123 119
98 111 386
99 253 262
100 338 989
101 844 543
102 596 175
103 657 234
104 369 551
105 688 921
106 228 473
107 676 942
108 463 128
109 875 97
110 982 861
111 67 607
112 445 748
113 828 305
114 659 433
115 43 98
116 216 200
117 673 668
118 387 303
119 768 421
120 258 543
121 737 698
122 124 97
123 859 222
124 130 599
125 52 803
126 157 460
127 888 289
128 970 456
129 854 776
130 600 549
131 877 51
132 992 969
133 80 304
134 893 539
135 805 76
136 990 256
137 873 464
138 306 119
139 101 574
140 836 204
141 74 223
142 438 996
143 150 894
144 979 964
145 733 939
146 716 390
147 787 27
148 947 450
149 599 860
150 893 538
151 801 106
152 846 847
153 627 625
154 553 193
155 435 902
156 860 100
157 472 765
158 605 123
159 887 327
160 752 426
161 996 198
162 789 612
163 803 935
164 361 801
165 760 739
166 170 958
167 786 418
168 107 470
169 531 586
170 646 977
171 892 113
172 486 445
173 778 834
174 438 499
175 128 494
176 572 1000
177 174 964
178 599 871
179 957 677
180 518 177
181 93 349
182 506 454
183 792 919
184 55 284
185 116 755
186 368 125
187 502 114
188 994 392
189 523 837
190 721 780
191 907 303
192 719 842
193 799 638
194 928 824
195 280 162
196 697 736
197 131 96
198 680 683
199 850 512
200 972 443
201 913 538
202 499 296
203 296 811
204 664 100
205 237 179
206 232 621
207 252 659
208 474 107
209 401 630
210 556 126
211 804 296
212 180 632
213 405 387
214 475 300
215 992 105
216 137 104
217 454 340
218 821 145
219 307 108
220 780 725
221 453 269
222 756 679
223 196 467
224 120 954
225 512 344
226 266 435
227 559 986
228 248 22
229 446 627
230 672 964
231 247 606
232 834 425
233 269 568
234 115 328
235 565 915
236 621 421
237 701 511
238 70 610
239 771 636
240 937 537
241 664 187
242 840 406
PICKUP_AND_DELIVERY_SECTION
1 0 0 0 0 0 0
2 0 0 0 0 0 6
3 0 0 0 0 0 2
4 0 0 0 0 0 2
5 0 0 0 0 0 1
6 0 0 0 0 0 8
7 0 0 0 0 0 3
8 0 0 0 0 0 1
9 0 0 0 0 0 4
10 0 0 0 0 0 7
11 0 0 0 0 10 0
12 0 0 0 0 0 4
13 0 0 0 0 0 6
14 0 0 0 0 0 9
15 0 0 0 0 0 7
16 0 0 0 0 0 2
17 0 0 0 0 0 6
18 0 0 0 0 0 2
19 0 0 0 0 0 2
20 0 0 0 0 0 5
21 0 0 0 0 4 0
22 0 0 0 0 0 6
23 0 0 0 0 0 4
24 0 0 0 0 0 10
25 0 0 0 0 0 1
26 0 0 0 0 0 1
27 0 0 0 0 0 1
28 0 0 0 0 0 3
29 0 0 0 0 0 1
30 0 0 0 0 0 4
31 0 0 0 0 6 0
32 0 0 0 0 0 1
33 0 0 0 0 0 7
34 0 0 0 0 0 9
35 0 0 0 0 0 7
36 0 0 0 0 0 3
37 0 0 0 0 0 10
38 0 0 0 0 0 10
39 0 0 0 0 0 6
40 0 0 0 0 0 4
41 0 0 0 0 1 0
42 0 0 0 0 0 3
43 0 0 0 0 0 10
44 0 0 0 0 0 10
45 0 0 0 0 0 7
46 0 0 0 0 0 9
47 0 0 0 0 0 10
48 0 0 0 0 0 8
49 0 0 0 0 0 4
50 0 0 0 0 0 10
51 0 0 0 0 7 0
52 0 0 0 0 0 7
53 0 0 0 0 0 7
54 0 0 0 0 0 5
55 0 0 0 0 0 1
56 0 0 0 0 0 3
57 0 0 0 0 0 8
58 0 0 0 0 0 10
59 0 0 0 0 0 7
60 0 0 0 0 0 3
61 0 0 0 0 6 0
62 0 0 0 0 0 3
63 0 0 0 0 0 9
64 0 0 0 0 0 7
65 0 0 0 0 0 10
66 0 0 0 0 0 6
67 0 0 0 0 0 5
68 0 0 0 0 0 8
69 0 0 0 0 0 8
70 0 0 0 0 0 5
71 0 0 0 0 2 0
72 0 0 0 0 0 5
73 0 0 0 0 0 8
74 0 0 0 0 0 1
75 0 0 0 0 0 7
76 0 0 0 0 0 10
77 0 0 0 0 0 9
78 0 0 0 0 0 7
79 0 0 0 0 0 9
80 0 0 0 0 0 7
81 0 0 0 0 5 0
82 0 0 0 0 0 2
83 0 0 0 0 0 5
84 0 0 0 0 0 4
85 0 0 0 0 0 6
86 0 0 0 0 0 10
87 0 0 0 0 0 3
88 0 0 0 0 0 6
89 0 0 0 0 0 3
90 0 0 0 0 0 6
91 0 0 0 0 4 0
92 0 0 0 0 0 3
93 0 0 0 0 0 3
94 0 0 0 0 0 7
95 0 0 0 0 0 6
96 0 0 0 0 0 6
97 0 0 0 0 0 9
98 0 0 0 0 0 6
99 0 0 0 0 0 5
100 0 0 0 0 0 10
101 0 0 0 0 7 0
102 0 0 0 0 0 10
103 0 0 0 0 0 3
104 0 0 0 0 0 1
105 0 0 0 0 0 2
106 0 0 0 0 0 1
107 0 0 0 0 0 8
108 0 0 0 0 0 6
109 0 0 0 0 0 5
110 0 0 0 0 0 10
111 0 0 0 0 9 0
112 0 0 0 0 0 7
113 0 0 0 0 0 6
114 0 0 0 0 0 7
115 0 0 0 0 0 4
116 0 0 0 0 0 9
117 0 0 0 0 0 1
118 0 0 0 0 0 7
119 0 0 0 0 0 2
120 0 0 0 0 0 9
121 0 0 0 0 2 0
122 0 0 0 0 0 10
123 0 0 0 0 0 1
124 0 0 0 0 0 6
125 0 0 0 0 0 4
126 0 0 0 0 0 3
127 0 0 0 0 0 10
128 0 0 0 0 0 4
129 0 0 0 0 0 1
130 0 0 0 0 0 10
131 0 0 0 0 5 0
132 0 0 0 0 0 3
133 0 0 0 0 0 9
134 0 0 0 0 0 8
135 0 0 0 0 0 3
136 0 0 0 0 0 1
137 0 0 0 0 0 10
138 0 0 0 0 0 4
139 0 0 0 0 0 5
140 0 0 0 0 0 2
141 0 0 0 0 4 0
142 0 0 0 0 0 1
143 0 0 0 0 0 4
144 0 0 0 0 0 6
145 0 0 0 0 0 3
146 0 0 0 0 0 7
147 0 0 0 0 0 3
148 0 0 0 0 0 6
149 0 0 0 0 0 5
150 0 0 0 0 0 1
151 0 0 0 0 3 0
152 0 0 0 0 0 9
153 0 0 0 0 0 4
154 0 0 0 0 0 2
155 0 0 0 0 0 6
156 0 0 0 0 0 5
157 0 0 0 0 0 10
158 0 0 0 0 0 7
159 0 0 0 0 0 6
160 0 0 0 0 0 10
161 0 0 0 0 2 0
162 0 0 0 0 0 8
163 0 0 0 0 0 6
164 0 0 0 0 0 7
165 0 0 0 0 0 5
166 0 0 0 0 0 6
167 0 0 0 0 0 8
168 0 0 0 0 0 1
169 0 0 0 0 0 7
170 0 0 0 0 0 10
171 0 0 0 0 4 0
172 0 0 0 0 0 10
173 0 0 0 0 0 10
174 0 0 0 0 0 7
175 0 0 0 0 0 7
176 0 0 0 0 0 1
177 0 0 0 0 0 2
178 0 0 0 0 0 1
179 0 0 0 0 0 2
180 0 0 0 0 0 7
181 0 0 0 0 9 0
182 0 0 0 0 0 7
183 0 0 0 0 0 10
184 0 0 0 0 0 4
185 0 0 0 0 0 3
186 0 0 0 0 0 3
187 0 0 0 0 0 10
188 0 0 0 0 0 2
189 0 0 0 0 0 3
190 0 0 0 0 0 2
191 0 0 0 0 8 0
192 0 0 0 0 0 2
193 0 0 0 0 0 9
194 0 0 0 0 0 10
195 0 0 0 0 0 5
196 0 0 0 0 0 8
197 0 0 0 0 0 8
198 0 0 0 0 0 9
199 0 0 0 0 0 1
200 0 0 0 0 0 10
201 0 0 0 0 10 0
202 0 0 0 0 0 9
203 0 0 0 0 0 7
204 0 0 0 0 0 2
205 0 0 0 0 0 3
206 0 0 0 0 0 3
207 0 0 0 0 0 3
208 0 0 0 0 0 1
209 0 0 0 0 0 1
210 0 0 0 0 0 10
211 0 0 0 0 10 0
212 0 0 0 0 0 5
213 0 0 0 0 0 5
214 0 0 0 0 0 10
215 0 0 0 0 0 7
216 0 0 0 0 0 1
217 0 0 0 0 0 8
218 0 0 0 0 0 1
219 0 0 0 0 0 1
220 0 0 0 0 0 1
221 0 0 0 0 4 0
222 0 0 0 0 0 5
223 0 0 0 0 0 9
224 0 0 0 0 0 7
225 0 0 0 0 0 9
226 0 0 0 0 0 7
227 0 0 0 0 0 3
228 0 0 0 0 0 7
229 0 0 0 0 0 7
230 0 0 0 0 0 2
231 0 0 0 0 5 0
232 0 0 0 0 0 5
233 0 0 0 0 0 7
234 0 0 0 0 0 2
235 0 0 0 0 0 10
236 0 0 0 0 0 3
237 0 0 0 0 0 5
238 0 0 0 0 0 5
239 0 0 0 0 0 5
240 0 0 0 0 0 3
241 0 0 0 0 6 0
242 0 0 0 0 0 3
